c --- [ banner ] -------------------------------------------------------------
c 
c CaDiCaL Radically Simplified CDCL SAT Solver
c Copyright (c) 2016-2021 A. Biere, M. Fleury, N. Froleyks
c 
c Version 1.5.2 a5f15211db36c3956764e18194dd5bd63bf3b5e6
c g++ (GCC) 9.3.0 -Wall -Wextra -O3 -DNDEBUG
c Fri Oct 21 01:27:37 EDT 2022 Linux gra-login3 3.10.0-1160.66.1.el7.x86_64 x86_64
c 
c --- [ limit ] --------------------------------------------------------------
c 
c setting conflict limit to 200000 conflicts (due to '200000')
c 
c --- [ parsing input ] ------------------------------------------------------
c 
c reading DIMACS file from '33.cubes4118.adj'
c opening file to read '33.cubes4118.adj'
c found 'p cnf 6160 1595474' header
c parsed 1595474 clauses in 19.47 seconds process time
c closing file '33.cubes4118.adj'
c after reading 1457566769 bytes 1390.0 MB
c 
c --- [ options ] ------------------------------------------------------------
c 
c all options are set to their default value
c 
c --- [ solving ] ------------------------------------------------------------
c 
c time measured in process time since initialization
c 
c  seconds    reductions  redundant   irredundant
c          MB     restarts       trail       variables
c            level   conflicts       glue         remaining
c 
c * 19.47 1381  0 0   0    0    0  0% 0 1595422 2437 40%
c { 21.02 1458  0 0   0    0    0  0% 0 1595422 2437 40%
c i 24.83 1519 174 0  18  140  108 23% 8 1595422 2402 39%
c - 31.96 1501 114 1  56  304  229 24% 19 335851 2398 39%
c i 32.41 1404 109 1  63  335  258 24% 19 335851 2397 39%
c i 32.48 1404 111 1  67  354  271 24% 22 335851 2396 39%
c i 32.48 1404 111 1  68  361  273 24% 22 335851 2394 39%
c i 32.61 1405 110 1  71  369  280 24% 22 335851 2393 39%
c i 32.62 1405 110 1  71  370  280 24% 22 335851 2392 39%
c i 32.72 1405 111 1  74  385  290 24% 21 335851 2391 39%
c i 32.88 1405 111 1  78  403  307 24% 24 335851 2390 39%
c i 33.17 1406 111 1  84  432  331 25% 24 335851 2387 39%
c i 34.09 1408 109 1 108  531  416 25% 27 335851 2386 39%
c i 34.11 1408 109 1 109  533  417 25% 27 335851 2381 39%
c i 34.65 1408 112 1 115  573  451 25% 27 335851 2369 38%
c i 35.13 1409 105 1 125  642  509 25% 27 335851 2368 38%
c i 35.14 1409 105 1 125  643  509 25% 27 335851 2367 38%
c i 35.16 1409 104 1 125  651  515 25% 27 335851 2366 38%
c i 35.17 1409 104 1 125  652  515 25% 27 335851 2365 38%
c i 35.21 1409 103 1 125  666  526 25% 27 335851 2364 38%
c 
c  seconds    reductions  redundant   irredundant
c          MB     restarts       trail       variables
c            level   conflicts       glue         remaining
c 
c i 37.17 1410 94 1 157  886  714 26% 28 335851 2363 38%
c i 37.27 1410 94 1 159  905  731 26% 28 335851 2362 38%
c i 37.38 1410 94 1 160  920  745 26% 28 335851 2361 38%
c i 37.39 1410 94 1 160  921  745 26% 28 335851 2360 38%
c i 37.41 1410 93 1 160  925  748 26% 28 335851 2359 38%
c i 37.61 1411 94 1 167  961  777 26% 30 335851 2358 38%
c } 37.84 1411 93 1 177 1000  813 26% 31 335851 2358 38%
c [ 37.84 1411  0 1 177 1000  813  0% 0 335851 2358 38%
c O 37.86 1411 37 1 177 1004  817 27% 14 335851 2358 38%
c i 37.86 1411 25 1 177 1006  818 22% 9 335851 2326 38%
c i 38.13 1411 16 1 177 1020  830 24% 8 335851 2325 38%
c i 38.15 1411 15 1 177 1028  837 26% 8 335851 2324 38%
c i 38.19 1411 16 1 177 1044  848 28% 11 335851 2323 38%
c i 38.24 1411 16 1 177 1056  855 29% 11 335851 2322 38%
c i 38.24 1411 15 1 177 1059  857 29% 11 335851 2321 38%
c i 38.25 1411 15 1 177 1065  860 29% 11 335851 2320 38%
c i 38.28 1411 17 1 177 1084  874 29% 12 335851 2319 38%
c i 38.29 1411 17 1 177 1095  882 29% 13 335851 2318 38%
c i 38.35 1411 20 1 177 1147  924 29% 15 335851 2317 38%
c i 38.35 1411 19 1 177 1148  924 28% 14 335851 2316 38%
c 
c  seconds    reductions  redundant   irredundant
c          MB     restarts       trail       variables
c            level   conflicts       glue         remaining
c 
c i 38.36 1411 19 1 177 1158  933 28% 14 335851 2315 38%
c i 38.37 1411 19 1 177 1170  941 28% 14 335851 2314 38%
c - 39.07 1565 20 2 177 1220  888 28% 15 334952 2314 38%
c i 39.18 1565 20 2 177 1273  930 28% 16 334952 2313 38%
c i 39.22 1565 21 2 177 1353  998 29% 16 334952 2312 38%
c i 39.23 1565 22 2 177 1370 1013 29% 17 334952 2311 38%
c i 39.23 1565 21 2 177 1376 1017 29% 17 334952 2310 38%
c i 39.25 1565 21 2 177 1401 1037 29% 16 334952 2309 37%
c i 39.32 1565 21 2 177 1578 1148 29% 17 334952 2308 37%
c i 39.32 1565 21 2 177 1579 1148 29% 17 334952 2307 37%
c i 39.35 1565 21 2 177 1632 1179 29% 16 334952 2306 37%
c i 39.35 1565 21 2 177 1635 1181 29% 16 334952 2305 37%
c i 39.40 1565 21 2 177 1725 1240 29% 17 334952 2304 37%
c i 39.59 1565 21 2 178 2140 1530 29% 17 334952 2303 37%
c i 39.67 1565 22 2 178 2383 1696 29% 18 334952 2302 37%
c - 40.20 1562 22 3 178 2595 1425 29% 18 334916 2302 37%
c ] 40.70 1498 22 3 178 3001 1682 48% 18 334916 2302 37%
c { 40.70 1498 93 3 178 3001 1682 69% 31 334916 2302 37%
c F 40.75 1498 93 3 180 3005 1686 69% 31 334916 2302 37%
c i 40.99 1498 89 3 183 3083 1749 67% 30 334916 2301 37%
c 
c  seconds    reductions  redundant   irredundant
c          MB     restarts       trail       variables
c            level   conflicts       glue         remaining
c 
c i 41.83 1498 67 3 208 4011 2449 58% 30 334916 2300 37%
c - 42.38 1498 62 4 219 4425 2032 56% 30 334910 2300 37%
c d 43.67 1498 58 4 239 5006 2501 55% 29 314031 2289 37%
c 2 43.74 1498 58 4 239 5006 3612 55% 29 314031 2286 37%
c p 50.17 1498 58 4 239 5006 6871 55% 29 314031 2209 36%
c d 50.75 1498 58 4 239 5006 6604 55% 29 313369 2206 36%
c # 51.59 1498 51 4 248 6006 7372 54% 27 313369 2206 36%
c - 53.52 1348 48 5 273 6714 2966 53% 27 313369 2206 36%
c } 53.62 1348 47 5 273 7002 3163 53% 26 313369 2206 36%
c [ 53.62 1348 22 5 273 7002 3163 48% 18 313369 2206 36%
c - 54.89 1476 23 6 275 9407 3104 52% 19 313369 2206 36%
c I 55.14 1476 23 6 275 10008 3428 52% 19 313369 2206 36%
c - 56.24 1348 44 7 277 12550 3665 50% 34 313369 2206 36%
c ] 57.27 1348 53 7 278 15004 5530 49% 42 313369 2206 36%
c { 57.27 1348 47 7 278 15004 5530 53% 26 313369 2206 36%
c 2 57.33 1348 47 7 278 15008 6644 53% 26 313367 2206 36%
c p 59.42 1348 47 7 278 15008 9665 53% 26 313367 2206 36%
c B 59.58 1348 47 7 278 15009 9666 53% 26 313367 2206 36%
c - 63.18 1349 45 8 366 16142 4709 52% 25 313367 2206 36%
c s 64.54 1349 38 8 380 18710 6166 51% 23 311417 2206 36%
c 
c  seconds    reductions   redundant   irredundant
c          MB     restarts        trail       variables
c            level    conflicts       glue         remaining
c 
c v 69.53 1349 38 8 380 18710 6166 51% 23 311399 2206 36%
c t 69.65 1349 38 8 380 18710 6147 51% 23 311384 2206 36%
c e 70.78 1349 38 8 380 18710 5772 51% 23 309020 923 15%
c s 70.89 1349 38 8 380 18710 5772 51% 23 307271 923 15%
c - 73.94 1349 37 9 417 20181 4748 65% 22 307271 923 15%
c W 74.47 1349 35 9 417 21012 5308 67% 22 307271 923 15%
c - 83.92 1349 36 10 744 24643 5512 69% 22 307271 923 15%
c F 85.28 1349 32 10 746 28013 7590 70% 20 307271 923 15%
c - 88.94 1349 32 11 859 29551 6065 70% 21 307271 923 15%
c 3 91.41 1349 32 11 926 30008 7022 70% 21 307271 923 15%
c p 95.29 1349 32 11 926 30008 8846 70% 21 307271 913 15%
c d 95.64 1349 32 11 926 30008 8759 70% 21 306905 912 15%
c } 96.27 1349 31 11 930 31004 9446 70% 20 306905 912 15%
c [ 96.27 1349 53 11 930 31004 9446 122% 42 306905 912 15%
c - 97.77 1349 44 12 932 34908 7183 105% 36 306905 912 15%
c ] 97.88 1349 44 12 932 35310 7518 104% 35 306905 912 15%
c 1 97.88 1349 44 12 932 35310 7518 104% 35 306905 912 15%
c 
c --- [ writing output ] -----------------------------------------------------
c 
c writing simplified CNF to DIMACS file 'simp/33.cubes4118.adj.simp1'
c * 97.88 1349 44 12 932 35310 7518 104% 35 306905 912 15%
c opening file to write 'simp/33.cubes4118.adj.simp1'
c writing 'p cnf 6160 306905' header
c closing file 'simp/33.cubes4118.adj.simp1'
c after writing 145027898 bytes 138.3 MB
c wrote 306905 clauses in 1.05 seconds process time
c 
c --- [ writing extension ] --------------------------------------------------
c 
c writing extension stack to 'simp/33.cubes4118.adj.ext1'
c opening file to write 'simp/33.cubes4118.adj.ext1'
c closing file 'simp/33.cubes4118.adj.ext1'
c after writing 85967 bytes 0.1 MB
c wrote 3831 witnesses in 0.00 seconds process time
c 
c --- [ result ] -------------------------------------------------------------
c 
s SATISFIABLE
c 
c --- [ run-time profiling ] -------------------------------------------------
c 
c process time taken by individual solving procedures
c (percentage relative to process time for solving)
c 
c        56.88   72.54% search
c        47.00   59.94% unstable
c        21.53   27.46% simplify
c        19.47   24.83% parse
c        12.34   15.73% probe
c         8.12   10.36% stable
c         5.07    6.47% vivify
c         2.15    2.74% elim
c         1.55    1.98% lucky
c         0.22    0.27% subsume
c         0.21    0.27% walk
c         0.12    0.16% ternary
c   =================================
c        78.41   79.26% solve
c 
c last line shows process time for solving
c (percentage relative to total process time)
c 
c --- [ statistics ] ---------------------------------------------------------
c 
c chronological:              7062        20.00 %  of conflicts
c conflicts:                 35310       450.30    per second
c decisions:                102672      1309.36    per second
c eliminated:                 1283        20.83 %  of all variables
c fixed:                       806        13.08 %  of all variables
c learned:                   34487        97.67 %  per conflict
c learned_lits:            6250914       100.00 %  learned literals
c minimized:                     0         0.00 %  learned literals
c shrunken:                4001586        64.02 %  learned literals
c minishrunken:             436408         6.98 %  learned literals
c propagations:            3968665         0.05 M  per second
c reduced:                   17434        49.37 %  per conflict
c rephased:                      7      5044.29    interval
c restarts:                    932        37.89    interval
c stabilizing:                   3        40.52 %  of conflicts
c substituted:                  15         0.24 %  of all variables
c subsumed:                  12969         0.38 %  of all clauses
c strengthened:               4975         0.15 %  of all clauses
c ternary:                    2830         0.64 %  of resolved
c vivified:                     26         0.00 %  of all clauses
c walked:                        1     35310.00    interval
c weakened:                   3025         3.07    average size
c 
c seconds are measured in process time for solving
c 
c --- [ resources ] ----------------------------------------------------------
c 
c total process time since initialization:        98.93    seconds
c total real time since initialization:           99.77    seconds
c maximum resident set size of process:         1716.14    MB
c 
c --- [ shutting down ] ------------------------------------------------------
c 
c exit 10
WARNING! DIMACS header mismatch: wrong number of variables.
============================[ Problem Statistics ]=============================
|                                                                             |
|  Number of variables:          3491                                         |
|  Number of clauses:          306909                                         |
|  Parse time:                   1.99 s                                       |
|  Simplification time:          0.06 s                                       |
|                                                                             |
============================[ Search Statistics ]====================================================
| Conflicts |          ORIGINAL         |          LEARNT          | Num Sols |      SUBGRAPHS      |
|           |    Vars  Clauses Literals |    Limit  Clauses Lit/Cl |          | Canonical Noncanon. |
=====================================================================================================
|       130 |    3399   306939 31338746 |     2000      130    103 |        0 |        30        30 |
|       284 |    3399   306943 31338786 |     2000      284    110 |        0 |        30        34 |
|       520 |    3399   306954 31338973 |     2000      520     97 |        0 |        52        45 |
|      1064 |    3399   307161 31342244 |     2000     1064     72 |        0 |       169       252 |
|      1583 |    3399   307174 31342531 |     2000     1583     86 |        0 |       191       265 |
|      2395 |    3399   307227 31343515 |     3602     1397     46 |        0 |       223       318 |
|      3565 |    3399   307258 31344222 |     3602     2567     58 |        0 |       289       349 |
|      7070 |    3399   309055 31378307 |     5002     4272     26 |        0 |       841      2146 |
|     16580 |    3399   316003 31506541 |     8799     4379     20 |        0 |      2295      9094 |
|     20623 |    3399   316202 31510872 |     8799     8422     54 |        0 |      2352      9293 |
|     30093 |    3399   319906 31577625 |    11205     8498     20 |        0 |      3139     12997 |
|     62445 |    3399   343609 32007966 |    16011    14856     14 |        0 |      7897     36700 |
|     88642 |    3399   356832 32249998 |    19610    15252     39 |        0 |     10005     49923 |
|    110567 |    3399   359296 32299077 |    22012    16979     38 |        0 |     10762     52387 |
|    145383 |    3399   364920 32388780 |    25612    16995     35 |        0 |     11821     58011 |
|    233253 |    3399   409001 33180114 |    32824    19077     29 |        0 |     19439    102092 |
|    321703 |    3399   431767 33589359 |    38817    19520     16 |        0 |     22068    124858 |
|    432853 |    3399   444391 33796890 |    44825    27678     30 |        0 |     23862    137482 |
|    584100 |    3399   447849 33869387 |    52020    35520     40 |        0 |     24748    140940 |
|    958341 |    3399   600407 36182671 |    66419    58160     31 |        0 |     36409    293498 |
|   1413256 |    3349   413949 28659012 |    71107    65363     41 |        0 |     45513    415888 |
=====================================================================================================
Number of solutions   : 0
Canonical subgraphs   : 45855          (8 /sec)
          order  3    : 1              (125000 /sec)
          order  4    : 1              (333333 /sec)
          order  5    : 1              (166667 /sec)
          order  6    : 1              (38462 /sec)
          order  7    : 1              (5988 /sec)
          order  8    : 2              (1090 /sec)
          order  9    : 6              (298 /sec)
          order 10    : 22             (87 /sec)
          order 11    : 93             (26 /sec)
          order 12    : 435            (9 /sec)
          order 13    : 1588           (7 /sec)
          order 14    : 13920          (7 /sec)
          order 15    : 27929          (8 /sec)
          order 16    : 1412           (7 /sec)
          order 17    : 379            (5 /sec)
          order 18    : 52             (5 /sec)
          order 19    : 12             (4 /sec)
          order 20    : 0              (-nan /sec)
          order 21    : 0              (-nan /sec)
          order 22    : 0              (-nan /sec)
Noncanonical subgraphs: 419214         (67 /sec)
          order  3    : 0              (-nan /sec)
          order  4    : 0              (-nan /sec)
          order  5    : 0              (-nan /sec)
          order  6    : 0              (-nan /sec)
          order  7    : 0              (-nan /sec)
          order  8    : 0              (-nan /sec)
          order  9    : 0              (-nan /sec)
          order 10    : 0              (-nan /sec)
          order 11    : 0              (-nan /sec)
          order 12    : 0              (-nan /sec)
          order 13    : 6046           (8756 /sec)
          order 14    : 26499          (3024 /sec)
          order 15    : 68942          (346 /sec)
          order 16    : 315790         (53 /sec)
          order 17    : 1435           (53 /sec)
          order 18    : 501            (74 /sec)
          order 19    : 1              (31 /sec)
          order 20    : 0              (-nan /sec)
          order 21    : 0              (-nan /sec)
Canonicity checking   : 5941.11 s
Noncanonicity checking: 6230.5 s
Total canonicity time : 12171.6 s
database reductions   : 65
restarts              : 2746
conflicts             : 1417741        (111 /sec)
decisions             : 2217312        (0.00 % random) (173 /sec)
propagations          : 69354873       (5420 /sec)
conflict literals     : 98355769       (57.72 % deleted)
actual reward         : 0.221962
Memory used           : 478.00 MB
CPU time              : 12795.3 s

UNSATISFIABLE
